DIMENSION: 9
EDGE_WEIGHT_TYPE: EXPLICIT
EDGE_WEIGHT_FORMAT: FULL_MATRIX
EDGE_WEIGHT_SECTION:
32767 39 32767 4 32767 32767 32767 33 32767 
39 32767 32767 56 32767 32767 32767 32767 32767 
32767 32767 32767 32767 32767 32767 95 32767 32767 
4 56 32767 32767 32767 32767 32767 32767 32767 
32767 32767 32767 32767 32767 32767 32767 32767 32767 
32767 32767 32767 32767 32767 32767 47 9 21 
32767 32767 95 32767 32767 47 32767 32767 32767 
33 32767 32767 32767 32767 9 32767 32767 28 
32767 32767 32767 32767 32767 21 32767 28 32767 
EOF